
Gurobi 9.5.1 (linux64) logging started Mon 15 Aug 2022 06:16:25 PM MST

Set parameter LogFile to value "/home/local/ASUAD/kmajd1/NNRepLayer_v2/demos/walking_example/dynamic_constraint/repair_net/logs/opt_log_8_15_2022_17_55_37.log"
Gurobi Optimizer version 9.5.1 build v9.5.1rc2 (linux64)
Thread count: 48 physical cores, 96 logical processors, using up to 48 threads
Optimize a model with 389421 rows, 238674 columns and 6212918 nonzeros
Model fingerprint: 0x235c6254
Model has 337 quadratic objective terms
Variable types: 152402 continuous, 86272 integer (86272 binary)
Coefficient statistics:
  Matrix range     [3e-05, 2e+02]
  Objective range  [2e-03, 1e+00]
  QObjective range [6e-02, 6e-02]
  Bounds range     [2e-05, 8e+02]
  RHS range        [1e-06, 2e+02]

Concurrent MIP optimizer: 3 concurrent instances (16 threads per instance)

Presolve removed 0 rows and 995 columns
Presolve time: 0.80s

Instance 0 was solved

Explored 0 nodes (0 simplex iterations) in 1.15 seconds (0.20 work units)
Thread count was 1 (of 96 available processors)

Solution count 0

Model is infeasible
Best objective -, best bound -, gap -
